Instance0
Objective;Best_Integer;Best_Bound
0.0000;0.0000;106
0.0000;Cuts:4;110
integral;0.0000;Cuts:3
cutoff;0.0000;111
CPXPARAM_MIP_Cuts_Disjunctive-LiftProj:Disjunctive 3
CPXPARAM_MIP_Cuts_Disjunctive-LiftProj:LiftProj 2
Instance1
Objective;Best_Integer;Best_Bound
0.0000;0.0000;113
0.0000;0.0000;113
CPXPARAM_MIP_Cuts_Disjunctive-LiftProj:Disjunctive 0
CPXPARAM_MIP_Cuts_Disjunctive-LiftProj:LiftProj 0
Instance2
Objective;Best_Integer;Best_Bound
integral;-0.0000;-0.0000
CPXPARAM_MIP_Cuts_Disjunctive-LiftProj:Disjunctive 0
CPXPARAM_MIP_Cuts_Disjunctive-LiftProj:LiftProj 0
Instance3
Objective;Best_Integer;Best_Bound
integral;-0.0000;-0.0000
CPXPARAM_MIP_Cuts_Disjunctive-LiftProj:Disjunctive 0
CPXPARAM_MIP_Cuts_Disjunctive-LiftProj:LiftProj 0
Instance4
Objective;Best_Integer;Best_Bound
0.0000;0.0000;109
0.0000;Cuts:4;135
0.0000;Cuts:3;140
0.0000;Disjcuts:2;141
0.0000;0.0000;141
CPXPARAM_MIP_Cuts_Disjunctive-LiftProj:Disjunctive 0
CPXPARAM_MIP_Cuts_Disjunctive-LiftProj:LiftProj 2
Instance5
Objective;Best_Integer;Best_Bound
integral;-0.0000;-0.0000
CPXPARAM_MIP_Cuts_Disjunctive-LiftProj:Disjunctive 0
CPXPARAM_MIP_Cuts_Disjunctive-LiftProj:LiftProj 0
Instance6
Objective;Best_Integer;Best_Bound
integral;0.0000;0.0000
CPXPARAM_MIP_Cuts_Disjunctive-LiftProj:Disjunctive 0
CPXPARAM_MIP_Cuts_Disjunctive-LiftProj:LiftProj 0
Instance7
Objective;Best_Integer;Best_Bound
integral;0.0000;0.0000
CPXPARAM_MIP_Cuts_Disjunctive-LiftProj:Disjunctive 0
CPXPARAM_MIP_Cuts_Disjunctive-LiftProj:LiftProj 0
Instance8
Objective;Best_Integer;Best_Bound
-0.0000;-0.0000;123
-0.0000;LiftProj:2;145
-0.0000;Cuts:3;150
-0.0000;-0.0000;150
CPXPARAM_MIP_Cuts_Disjunctive-LiftProj:Disjunctive 2
CPXPARAM_MIP_Cuts_Disjunctive-LiftProj:LiftProj 2
Instance9
Objective;Best_Integer;Best_Bound
-0.0000;-0.0000;113
-0.0000;-0.0000;132
CPXPARAM_MIP_Cuts_Disjunctive-LiftProj:Disjunctive 0
CPXPARAM_MIP_Cuts_Disjunctive-LiftProj:LiftProj 0
Instance10
Objective;Best_Integer;Best_Bound
0.0000;0.0000;94
integral;0.0000;LiftProj:1
cutoff;0.0000;103
CPXPARAM_MIP_Cuts_Disjunctive-LiftProj:Disjunctive 0
CPXPARAM_MIP_Cuts_Disjunctive-LiftProj:LiftProj 0
Instance11
Objective;Best_Integer;Best_Bound
integral;0.0000;0.0000
CPXPARAM_MIP_Cuts_Disjunctive-LiftProj:Disjunctive 0
CPXPARAM_MIP_Cuts_Disjunctive-LiftProj:LiftProj 0
Instance12
Objective;Best_Integer;Best_Bound
0.0000;0.0000;106
integral;0.0000;Cuts:4
cutoff;0.0000;161
CPXPARAM_MIP_Cuts_Disjunctive-LiftProj:Disjunctive 0
CPXPARAM_MIP_Cuts_Disjunctive-LiftProj:LiftProj 0
Instance13
Objective;Best_Integer;Best_Bound
-0.0000;-0.0000;102
integral;-0.0000;-0.0000
-0.0000;-0.0000;-0.0000
CPXPARAM_MIP_Cuts_Disjunctive-LiftProj:Disjunctive 0
CPXPARAM_MIP_Cuts_Disjunctive-LiftProj:LiftProj 0
Instance14
Objective;Best_Integer;Best_Bound
-0.0000;-0.0000;78
integral;-0.0000;-0.0000
-0.0000;-0.0000;-0.0000
CPXPARAM_MIP_Cuts_Disjunctive-LiftProj:Disjunctive 0
CPXPARAM_MIP_Cuts_Disjunctive-LiftProj:LiftProj 0
Instance15
Objective;Best_Integer;Best_Bound
integral;0.0000;0.0000
CPXPARAM_MIP_Cuts_Disjunctive-LiftProj:Disjunctive 0
CPXPARAM_MIP_Cuts_Disjunctive-LiftProj:LiftProj 0
Instance16
Objective;Best_Integer;Best_Bound
-0.0000;-0.0000;123
integral;-0.0000;Cuts:3
cutoff;-0.0000;140
CPXPARAM_MIP_Cuts_Disjunctive-LiftProj:Disjunctive 1
CPXPARAM_MIP_Cuts_Disjunctive-LiftProj:LiftProj 1
Instance17
Objective;Best_Integer;Best_Bound
integral;-0.0000;-0.0000
CPXPARAM_MIP_Cuts_Disjunctive-LiftProj:Disjunctive 0
CPXPARAM_MIP_Cuts_Disjunctive-LiftProj:LiftProj 0
Instance18
Objective;Best_Integer;Best_Bound
integral;-0.0000;-0.0000
CPXPARAM_MIP_Cuts_Disjunctive-LiftProj:Disjunctive 0
CPXPARAM_MIP_Cuts_Disjunctive-LiftProj:LiftProj 0
Instance19
Objective;Best_Integer;Best_Bound
integral;0.0000;0.0000
CPXPARAM_MIP_Cuts_Disjunctive-LiftProj:Disjunctive 0
CPXPARAM_MIP_Cuts_Disjunctive-LiftProj:LiftProj 0
Instance20
Objective;Best_Integer;Best_Bound
0.0000;0.0000;115
0.0000;0.0000;136
CPXPARAM_MIP_Cuts_Disjunctive-LiftProj:Disjunctive 0
CPXPARAM_MIP_Cuts_Disjunctive-LiftProj:LiftProj 0
Instance21
Objective;Best_Integer;Best_Bound
-0.0000;-0.0000;114
0.0000;0.0000;131
CPXPARAM_MIP_Cuts_Disjunctive-LiftProj:Disjunctive 0
CPXPARAM_MIP_Cuts_Disjunctive-LiftProj:LiftProj 0
Instance22
Objective;Best_Integer;Best_Bound
integral;0.0000;0.0000
CPXPARAM_MIP_Cuts_Disjunctive-LiftProj:Disjunctive 0
CPXPARAM_MIP_Cuts_Disjunctive-LiftProj:LiftProj 0
Instance23
Objective;Best_Integer;Best_Bound
integral;0.0000;0.0000
CPXPARAM_MIP_Cuts_Disjunctive-LiftProj:Disjunctive 0
CPXPARAM_MIP_Cuts_Disjunctive-LiftProj:LiftProj 0
Instance24
Objective;Best_Integer;Best_Bound
0.0000;0.0000;120
0.0000;Cuts:3;123
integral;0.0000;Cuts:2
cutoff;0.0000;124
CPXPARAM_MIP_Cuts_Disjunctive-LiftProj:Disjunctive 2
CPXPARAM_MIP_Cuts_Disjunctive-LiftProj:LiftProj 1
Instance25
Objective;Best_Integer;Best_Bound
0.0000;0.0000;151
0.0000;0.0000;151
CPXPARAM_MIP_Cuts_Disjunctive-LiftProj:Disjunctive 0
CPXPARAM_MIP_Cuts_Disjunctive-LiftProj:LiftProj 0
Instance26
Objective;Best_Integer;Best_Bound
integral;0.0000;0.0000
CPXPARAM_MIP_Cuts_Disjunctive-LiftProj:Disjunctive 0
CPXPARAM_MIP_Cuts_Disjunctive-LiftProj:LiftProj 0
Instance27
Objective;Best_Integer;Best_Bound
integral;-0.0000;-0.0000
CPXPARAM_MIP_Cuts_Disjunctive-LiftProj:Disjunctive 0
CPXPARAM_MIP_Cuts_Disjunctive-LiftProj:LiftProj 0
Instance28
Objective;Best_Integer;Best_Bound
0.0000;0.0000;121
0.0000;LiftProj:1;124
0.0000;Disjcuts:1;126
0.0000;0.0000;126
CPXPARAM_MIP_Cuts_Disjunctive-LiftProj:Disjunctive 1
CPXPARAM_MIP_Cuts_Disjunctive-LiftProj:LiftProj 1
Instance29
Objective;Best_Integer;Best_Bound
-0.0000;-0.0000;126
-0.0000;-0.0000;149
CPXPARAM_MIP_Cuts_Disjunctive-LiftProj:Disjunctive 0
CPXPARAM_MIP_Cuts_Disjunctive-LiftProj:LiftProj 0
Instance30
Objective;Best_Integer;Best_Bound
integral;0.0000;0.0000
CPXPARAM_MIP_Cuts_Disjunctive-LiftProj:Disjunctive 0
CPXPARAM_MIP_Cuts_Disjunctive-LiftProj:LiftProj 0
Instance31
Objective;Best_Integer;Best_Bound
integral;-0.0000;-0.0000
CPXPARAM_MIP_Cuts_Disjunctive-LiftProj:Disjunctive 0
CPXPARAM_MIP_Cuts_Disjunctive-LiftProj:LiftProj 0
Instance32
Objective;Best_Integer;Best_Bound
0.0000;0.0000;147
0.0000;Cuts:2;180
0.0000;LiftProj:2;186
0.0000;Cuts:7;193
0.0000;0.0000;193
CPXPARAM_MIP_Cuts_Disjunctive-LiftProj:Disjunctive 0
CPXPARAM_MIP_Cuts_Disjunctive-LiftProj:LiftProj 1
Instance33
Objective;Best_Integer;Best_Bound
-0.0000;-0.0000;101
-0.0000;-0.0000;101
CPXPARAM_MIP_Cuts_Disjunctive-LiftProj:Disjunctive 0
CPXPARAM_MIP_Cuts_Disjunctive-LiftProj:LiftProj 0
Instance34
Objective;Best_Integer;Best_Bound
integral;0.0000;0.0000
CPXPARAM_MIP_Cuts_Disjunctive-LiftProj:Disjunctive 0
CPXPARAM_MIP_Cuts_Disjunctive-LiftProj:LiftProj 0
Instance35
Objective;Best_Integer;Best_Bound
integral;0.0000;0.0000
CPXPARAM_MIP_Cuts_Disjunctive-LiftProj:Disjunctive 0
CPXPARAM_MIP_Cuts_Disjunctive-LiftProj:LiftProj 0
Instance36
Objective;Best_Integer;Best_Bound
-0.0000;-0.0000;118
integral;-0.0000;Cuts:5
cutoff;-0.0000;144
CPXPARAM_MIP_Cuts_Disjunctive-LiftProj:Disjunctive 0
CPXPARAM_MIP_Cuts_Disjunctive-LiftProj:LiftProj 0
Instance37
Objective;Best_Integer;Best_Bound
integral;0.0000;0.0000
CPXPARAM_MIP_Cuts_Disjunctive-LiftProj:Disjunctive 0
CPXPARAM_MIP_Cuts_Disjunctive-LiftProj:LiftProj 0
Instance38
Objective;Best_Integer;Best_Bound
integral;0.0000;0.0000
CPXPARAM_MIP_Cuts_Disjunctive-LiftProj:Disjunctive 0
CPXPARAM_MIP_Cuts_Disjunctive-LiftProj:LiftProj 0
Instance39
Objective;Best_Integer;Best_Bound
integral;0.0000;0.0000
CPXPARAM_MIP_Cuts_Disjunctive-LiftProj:Disjunctive 0
CPXPARAM_MIP_Cuts_Disjunctive-LiftProj:LiftProj 0
